c Random graph: n=50, density=0.50, seed=2125
p edge 50 603
e 1 2
e 1 5
e 1 12
e 1 13
e 1 15
e 1 19
e 1 24
e 1 25
e 1 28
e 1 30
e 1 31
e 1 34
e 1 35
e 1 36
e 1 38
e 1 39
e 1 46
e 1 48
e 1 50
e 2 5
e 2 8
e 2 11
e 2 13
e 2 15
e 2 16
e 2 20
e 2 21
e 2 24
e 2 25
e 2 26
e 2 27
e 2 31
e 2 32
e 2 34
e 2 36
e 2 41
e 2 42
e 2 45
e 2 46
e 2 48
e 2 50
e 3 4
e 3 5
e 3 6
e 3 9
e 3 10
e 3 17
e 3 20
e 3 21
e 3 22
e 3 28
e 3 31
e 3 32
e 3 34
e 3 36
e 3 38
e 3 39
e 3 42
e 3 45
e 3 47
e 3 49
e 3 50
e 4 5
e 4 7
e 4 8
e 4 10
e 4 12
e 4 18
e 4 22
e 4 26
e 4 27
e 4 29
e 4 30
e 4 31
e 4 34
e 4 35
e 4 37
e 4 38
e 4 39
e 4 40
e 4 41
e 4 42
e 4 43
e 4 44
e 4 45
e 4 46
e 4 50
e 5 6
e 5 8
e 5 10
e 5 11
e 5 12
e 5 13
e 5 16
e 5 18
e 5 22
e 5 23
e 5 24
e 5 26
e 5 28
e 5 30
e 5 31
e 5 32
e 5 36
e 5 37
e 5 38
e 5 40
e 5 43
e 5 44
e 5 46
e 5 47
e 5 48
e 5 49
e 5 50
e 6 8
e 6 9
e 6 10
e 6 12
e 6 13
e 6 15
e 6 16
e 6 18
e 6 20
e 6 22
e 6 23
e 6 24
e 6 25
e 6 28
e 6 30
e 6 31
e 6 33
e 6 35
e 6 36
e 6 37
e 6 40
e 6 41
e 6 43
e 6 44
e 6 45
e 6 46
e 6 50
e 7 8
e 7 9
e 7 10
e 7 13
e 7 17
e 7 18
e 7 19
e 7 22
e 7 24
e 7 25
e 7 27
e 7 28
e 7 29
e 7 30
e 7 31
e 7 33
e 7 37
e 7 39
e 7 40
e 7 42
e 7 43
e 7 44
e 7 45
e 7 46
e 7 48
e 8 9
e 8 10
e 8 15
e 8 16
e 8 17
e 8 19
e 8 20
e 8 21
e 8 22
e 8 24
e 8 25
e 8 26
e 8 28
e 8 29
e 8 30
e 8 32
e 8 34
e 8 36
e 8 37
e 8 38
e 8 39
e 8 41
e 8 43
e 8 45
e 8 50
e 9 11
e 9 12
e 9 14
e 9 16
e 9 18
e 9 19
e 9 20
e 9 23
e 9 24
e 9 25
e 9 27
e 9 29
e 9 31
e 9 37
e 9 38
e 9 41
e 9 48
e 10 13
e 10 15
e 10 19
e 10 20
e 10 23
e 10 25
e 10 26
e 10 28
e 10 29
e 10 31
e 10 37
e 10 39
e 10 43
e 10 45
e 10 47
e 10 49
e 10 50
e 11 12
e 11 13
e 11 20
e 11 21
e 11 22
e 11 24
e 11 25
e 11 27
e 11 31
e 11 32
e 11 33
e 11 34
e 11 35
e 11 36
e 11 37
e 11 38
e 11 40
e 11 42
e 11 43
e 11 44
e 11 46
e 11 47
e 11 49
e 11 50
e 12 14
e 12 16
e 12 17
e 12 19
e 12 20
e 12 21
e 12 22
e 12 23
e 12 24
e 12 25
e 12 26
e 12 28
e 12 29
e 12 36
e 12 38
e 12 39
e 12 40
e 12 43
e 12 44
e 12 45
e 12 46
e 12 47
e 12 49
e 13 15
e 13 20
e 13 21
e 13 22
e 13 23
e 13 26
e 13 32
e 13 33
e 13 37
e 13 39
e 13 40
e 13 43
e 13 44
e 13 45
e 13 47
e 13 49
e 13 50
e 14 17
e 14 23
e 14 25
e 14 26
e 14 30
e 14 37
e 14 38
e 14 39
e 14 40
e 14 41
e 14 43
e 14 46
e 15 16
e 15 17
e 15 19
e 15 20
e 15 21
e 15 28
e 15 30
e 15 32
e 15 35
e 15 37
e 15 38
e 15 39
e 15 44
e 15 45
e 15 47
e 15 48
e 15 49
e 16 17
e 16 18
e 16 19
e 16 23
e 16 26
e 16 27
e 16 28
e 16 29
e 16 31
e 16 33
e 16 34
e 16 36
e 16 37
e 16 48
e 17 19
e 17 21
e 17 30
e 17 35
e 17 38
e 17 39
e 17 41
e 17 42
e 17 44
e 17 45
e 17 46
e 17 47
e 17 48
e 18 22
e 18 24
e 18 26
e 18 28
e 18 29
e 18 32
e 18 33
e 18 35
e 18 39
e 18 45
e 18 50
e 19 20
e 19 22
e 19 23
e 19 24
e 19 26
e 19 27
e 19 28
e 19 29
e 19 30
e 19 32
e 19 33
e 19 34
e 19 35
e 19 36
e 19 37
e 19 40
e 19 41
e 19 43
e 19 45
e 19 48
e 19 49
e 20 22
e 20 24
e 20 26
e 20 27
e 20 28
e 20 29
e 20 31
e 20 32
e 20 36
e 20 39
e 20 41
e 20 43
e 20 44
e 20 45
e 20 47
e 20 50
e 21 24
e 21 25
e 21 27
e 21 28
e 21 34
e 21 37
e 21 45
e 21 46
e 21 48
e 21 50
e 22 23
e 22 28
e 22 31
e 22 32
e 22 46
e 22 49
e 23 28
e 23 34
e 23 35
e 23 37
e 23 41
e 23 42
e 23 44
e 23 47
e 23 48
e 23 49
e 23 50
e 24 28
e 24 30
e 24 31
e 24 37
e 24 38
e 24 40
e 24 41
e 24 45
e 24 46
e 24 47
e 25 26
e 25 27
e 25 28
e 25 30
e 25 33
e 25 37
e 25 38
e 25 43
e 25 46
e 25 49
e 26 28
e 26 29
e 26 30
e 26 33
e 26 34
e 26 39
e 26 40
e 26 41
e 26 42
e 26 43
e 26 44
e 26 47
e 26 48
e 26 50
e 27 29
e 27 31
e 27 32
e 27 34
e 27 35
e 27 36
e 27 37
e 27 38
e 27 40
e 27 46
e 27 48
e 28 29
e 28 30
e 28 38
e 28 39
e 28 40
e 28 42
e 28 43
e 28 47
e 29 31
e 29 33
e 29 34
e 29 36
e 29 37
e 29 40
e 29 42
e 29 44
e 29 45
e 29 48
e 29 50
e 30 31
e 30 34
e 30 39
e 30 42
e 30 45
e 30 46
e 30 47
e 30 50
e 31 33
e 31 38
e 31 39
e 31 41
e 31 45
e 31 46
e 31 47
e 31 49
e 31 50
e 32 35
e 32 38
e 32 39
e 32 40
e 32 41
e 32 42
e 32 43
e 32 44
e 32 46
e 32 48
e 32 49
e 32 50
e 33 36
e 33 37
e 33 38
e 33 39
e 33 40
e 33 42
e 33 43
e 33 44
e 33 45
e 33 46
e 33 49
e 34 36
e 34 37
e 34 39
e 34 40
e 34 42
e 34 43
e 34 44
e 34 47
e 34 48
e 34 49
e 35 38
e 35 40
e 35 41
e 35 44
e 35 47
e 35 49
e 35 50
e 36 37
e 36 38
e 36 40
e 36 41
e 36 44
e 36 45
e 36 46
e 36 49
e 36 50
e 37 39
e 37 43
e 37 45
e 37 46
e 37 49
e 38 42
e 38 44
e 38 45
e 38 46
e 38 47
e 38 49
e 38 50
e 39 41
e 39 42
e 39 44
e 39 45
e 39 46
e 39 47
e 39 48
e 39 50
e 40 42
e 40 43
e 40 44
e 40 45
e 40 46
e 40 48
e 40 49
e 40 50
e 41 44
e 41 47
e 41 49
e 41 50
e 42 43
e 42 44
e 42 46
e 42 47
e 42 50
e 43 44
e 43 49
e 43 50
e 44 45
e 44 46
e 44 48
e 44 49
e 44 50
e 45 48
e 45 49
e 46 49
e 46 50
e 47 49
e 47 50
e 48 49
e 48 50
